(set-info :smt-lib-version 2.6)
(set-logic QF_BV)
(set-info :source |
Benchmarks generated by the Calysto static checker.  Provided by Domagoj
Babic.  See http://www.cs.ubc.ca/~babic/index_benchmarks.htm.  Translated using
Spear Sf2Smt translator.

|)
(set-info :category "industrial")
(set-info :status sat)
(declare-fun v47995532 () (_ BitVec 32))
(declare-fun o81304044 () (_ BitVec 1))
(declare-fun v43415208 () (_ BitVec 32))
(declare-fun o30427348 () (_ BitVec 1))
(declare-fun v39887212 () (_ BitVec 32))
(declare-fun o24791492 () (_ BitVec 1))
(declare-fun o34343164 () (_ BitVec 1))
(declare-fun o52626488 () (_ BitVec 1))
(declare-fun o37900020 () (_ BitVec 1))
(declare-fun o97676344 () (_ BitVec 1))
(declare-fun o56140896 () (_ BitVec 1))
(declare-fun o68997108 () (_ BitVec 1))
(declare-fun v57174964 () (_ BitVec 32))
(declare-fun o37166340 () (_ BitVec 1))
(declare-fun o37910808 () (_ BitVec 1))
(declare-fun o84875624 () (_ BitVec 1))
(declare-fun o37952328 () (_ BitVec 32))
(declare-fun o18995972 () (_ BitVec 64))
(declare-fun v35755812 () (_ BitVec 64))
(declare-fun o34963368 () (_ BitVec 1))
(declare-fun o44061484 () (_ BitVec 64))
(declare-fun o49614352 () (_ BitVec 64))
(declare-fun o97628840 () (_ BitVec 64))
(declare-fun o68605576 () (_ BitVec 64))
(declare-fun v68367860 () (_ BitVec 8))
(declare-fun o57667712 () (_ BitVec 64))
(declare-fun v55784016 () (_ BitVec 64))
(declare-fun o38303356 () (_ BitVec 64))
(declare-fun v38040596 () (_ BitVec 64))
(declare-fun o44677720 () (_ BitVec 64))
(declare-fun o109068332 () (_ BitVec 64))
(declare-fun o35699772 () (_ BitVec 1))
(declare-fun o91383816 () (_ BitVec 1))
(declare-fun o69800464 () (_ BitVec 64))
(declare-fun o70799940 () (_ BitVec 64))
(declare-fun o93057300 () (_ BitVec 1))
(declare-fun o53275916 () (_ BitVec 1))
(declare-fun vf42768156 () (_ BitVec 1))
(declare-fun o82140432 () (_ BitVec 1))
(declare-fun v48733284 () (_ BitVec 1))
(declare-fun v15668420 () (_ BitVec 32))
(declare-fun o35180172 () (_ BitVec 32))
(declare-fun v16385160 () (_ BitVec 32))
(declare-fun o75385956 () (_ BitVec 1))
(declare-fun o127919872 () (_ BitVec 1))
(declare-fun o40235824 () (_ BitVec 1))
(declare-fun o20189032 () (_ BitVec 1))
(declare-fun o19623012 () (_ BitVec 1))
(declare-fun o56773028 () (_ BitVec 1))
(declare-fun o29015748 () (_ BitVec 1))
(declare-fun o102252252 () (_ BitVec 1))
(declare-fun o48763996 () (_ BitVec 1))
(declare-fun o19713492 () (_ BitVec 1))
(declare-fun o38386696 () (_ BitVec 1))
(declare-fun o65145488 () (_ BitVec 1))
(declare-fun o68105844 () (_ BitVec 1))
(declare-fun o28178448 () (_ BitVec 64))
(declare-fun o94734656 () (_ BitVec 64))
(declare-fun o34992600 () (_ BitVec 1))
(declare-fun o41414460 () (_ BitVec 1))
(declare-fun o44664988 () (_ BitVec 1))
(declare-fun o73466396 () (_ BitVec 1))
(declare-fun o29258072 () (_ BitVec 64))
(declare-fun o91100236 () (_ BitVec 1))
(declare-fun o67731780 () (_ BitVec 1))
(declare-fun o45602384 () (_ BitVec 64))
(declare-fun o38515472 () (_ BitVec 1))
(declare-fun o82805240 () (_ BitVec 1))
(declare-fun v51759828 () (_ BitVec 32))
(declare-fun o51088400 () (_ BitVec 1))
(declare-fun o42234440 () (_ BitVec 1))
(declare-fun o42572208 () (_ BitVec 1))
(declare-fun Fresh__0 () (_ BitVec 1))
(declare-fun Fresh__1 () (_ BitVec 1))
(declare-fun Fresh__2 () (_ BitVec 1))
(declare-fun Fresh__3 () (_ BitVec 1))
(declare-fun Fresh__4 () (_ BitVec 1))
(declare-fun Fresh__5 () (_ BitVec 1))
(declare-fun Fresh__6 () (_ BitVec 1))
(declare-fun Fresh__7 () (_ BitVec 1))
(declare-fun Fresh__8 () (_ BitVec 1))
(declare-fun Fresh__9 () (_ BitVec 1))
(declare-fun Fresh__10 () (_ BitVec 1))
(declare-fun Fresh__11 () (_ BitVec 1))
(declare-fun Fresh__12 () (_ BitVec 1))
(declare-fun Fresh__13 () (_ BitVec 1))
(declare-fun Fresh__14 () (_ BitVec 1))
(declare-fun Fresh__15 () (_ BitVec 1))
(declare-fun Fresh__16 () (_ BitVec 1))
(declare-fun Fresh__17 () (_ BitVec 1))
(declare-fun Fresh__18 () (_ BitVec 1))
(declare-fun Fresh__19 () (_ BitVec 1))
(declare-fun Fresh__20 () (_ BitVec 1))
(declare-fun Fresh__21 () (_ BitVec 1))
(assert (= (= Fresh__0 (_ bv1 1)) (= ((_ extract 31 0) (_ bv0 64)) v47995532)))
(assert (= o81304044 Fresh__0))
(assert (= (= Fresh__1 (_ bv1 1)) (= v43415208 ((_ extract 31 0) (_ bv0 64)))))
(assert (= o30427348 Fresh__1))
(assert (= (= Fresh__2 (_ bv1 1)) (bvslt v39887212 ((_ extract 31 0) (_ bv0 64)))))
(assert (= o24791492 Fresh__2))
(assert (= o34343164 (bvand ((_ extract 0 0) (_ bv1 64)) o30427348)))
(assert (= (= Fresh__3 (_ bv1 1)) (bvsle ((_ extract 31 0) (_ bv0 64)) v39887212)))
(assert (= o52626488 Fresh__3))
(assert (= o37900020 (bvand o34343164 o52626488)))
(assert (= o97676344 (ite (= o24791492 (_ bv1 1)) o34343164 o37900020)))
(assert (= o56140896 (ite (= o30427348 (_ bv1 1)) o97676344 ((_ extract 0 0) (_ bv1 64)))))
(assert (= o68997108 (ite (= o81304044 (_ bv1 1)) o56140896 ((_ extract 0 0) (_ bv0 64)))))
(assert (= (= Fresh__4 (_ bv1 1)) (distinct ((_ extract 31 0) (_ bv0 64)) v57174964)))
(assert (= o37166340 Fresh__4))
(assert (= o37910808 (bvand o68997108 o37166340)))
(assert (= o84875624 (bvand ((_ extract 0 0) (_ bv1 64)) o37910808)))
(assert (= o37952328 (bvadd ((_ extract 31 0) (_ bv18446744073709551615 64)) v47995532)))
(assert (= o18995972 ((_ sign_extend 32) o37952328)))
(assert (= (= Fresh__5 (_ bv1 1)) (bvslt ((_ extract 63 0) (_ bv10 64)) v35755812)))
(assert (= o34963368 Fresh__5))
(assert (= o44061484 (bvadd v35755812 ((_ extract 63 0) (_ bv1 64)))))
(assert (= o49614352 (ite (= o34963368 (_ bv1 1)) o44061484 ((_ extract 63 0) (_ bv12 64)))))
(assert (= o97628840 (bvsub o18995972 o49614352)))
(assert (= o68605576 (bvadd o97628840 ((_ extract 63 0) (_ bv18446744073709551586 64)))))
(assert (= o57667712 ((_ sign_extend 56) v68367860)))
(assert (= o38303356 (bvadd o57667712 v55784016)))
(assert (= o44677720 (bvsdiv o38303356 v38040596)))
(assert (= o109068332 (bvmul o68605576 o44677720)))
(assert (= (= Fresh__6 (_ bv1 1)) (bvsle o109068332 o68605576)))
(assert (= o35699772 Fresh__6))
(assert (= (= Fresh__7 (_ bv1 1)) (distinct o68605576 ((_ extract 63 0) (_ bv0 64)))))
(assert (= o91383816 Fresh__7))
(assert (= o69800464 (bvmul ((_ extract 63 0) (_ bv100 64)) o38303356)))
(assert (= o70799940 (bvsdiv o69800464 v38040596)))
(assert (= (= Fresh__8 (_ bv1 1)) (bvslt o70799940 ((_ extract 63 0) (_ bv100 64)))))
(assert (= o93057300 Fresh__8))
(assert (= (= Fresh__9 (_ bv1 1)) (bvslt ((_ extract 63 0) (_ bv0 64)) v38040596)))
(assert (= o53275916 Fresh__9))
(assert (= o82140432 (bvand vf42768156 ((_ extract 0 0) (_ bv1 64)))))
(assert (= o35180172 (ite (= v48733284 (_ bv1 1)) ((_ extract 31 0) (_ bv0 64)) v15668420)))
(assert (= (= Fresh__10 (_ bv1 1)) (= o35180172 v16385160)))
(assert (= o75385956 Fresh__10))
(assert (= o127919872 (bvand o82140432 o75385956)))
(assert (= o40235824 (bvand ((_ extract 0 0) (_ bv1 64)) o127919872)))
(assert (= o20189032 (bvand o53275916 o40235824)))
(assert (= (= Fresh__11 (_ bv1 1)) (bvsle o70799940 ((_ extract 63 0) (_ bv100 64)))))
(assert (= o19623012 Fresh__11))
(assert (= o56773028 (bvand o20189032 o19623012)))
(assert (= (= Fresh__12 (_ bv1 1)) (bvsle ((_ extract 63 0) (_ bv100 64)) o70799940)))
(assert (= o29015748 Fresh__12))
(assert (= o102252252 (bvand o56773028 o29015748)))
(assert (= o48763996 (ite (= o93057300 (_ bv1 1)) o56773028 o102252252)))
(assert (= o19713492 (bvand o91383816 o48763996)))
(assert (= (= Fresh__13 (_ bv1 1)) (bvsle ((_ extract 63 0) (_ bv1 64)) v38040596)))
(assert (= o38386696 Fresh__13))
(assert (= o65145488 (bvand o19713492 o38386696)))
(assert (= o68105844 (bvand o35699772 o65145488)))
(assert (= o28178448 (bvsdiv v55784016 v38040596)))
(assert (= o94734656 (bvmul o68605576 o28178448)))
(assert (= (= Fresh__14 (_ bv1 1)) (bvsle o94734656 o109068332)))
(assert (= o34992600 Fresh__14))
(assert (= o41414460 (bvand o68105844 o34992600)))
(assert (= (= Fresh__15 (_ bv1 1)) (bvsle o94734656 ((_ extract 63 0) (_ bv0 64)))))
(assert (= o44664988 Fresh__15))
(assert (= o73466396 (bvand o41414460 o44664988)))
(assert (= o29258072 (bvsub o109068332 o94734656)))
(assert (= (= Fresh__16 (_ bv1 1)) (bvslt ((_ extract 63 0) (_ bv0 64)) o29258072)))
(assert (= o91100236 Fresh__16))
(assert (= o67731780 (bvand o73466396 o91100236)))
(assert (= o45602384 (bvadd ((_ extract 63 0) (_ bv18446744073709551615 64)) o29258072)))
(assert (= (= Fresh__17 (_ bv1 1)) (bvslt ((_ extract 63 0) (_ bv0 64)) o45602384)))
(assert (= o38515472 Fresh__17))
(assert (= o82805240 (bvand o67731780 o38515472)))
(assert (= (= Fresh__18 (_ bv1 1)) (distinct ((_ extract 31 0) (_ bv0 64)) v51759828)))
(assert (= o51088400 Fresh__18))
(assert (= (= Fresh__19 (_ bv1 1)) (=> (= o82805240 (_ bv1 1)) (= o51088400 (_ bv1 1)))))
(assert (= o42234440 Fresh__19))
(assert (= (= Fresh__20 (_ bv1 1)) (=> (= o84875624 (_ bv1 1)) (= o42234440 (_ bv1 1)))))
(assert (= o42572208 Fresh__20))
(assert (= (= Fresh__21 (_ bv1 1)) (= ((_ extract 0 0) (_ bv0 64)) o42572208)))
(assert (= (_ bv1 1) Fresh__21))
(check-sat)
(exit)
